name="zeroin.i.3";
nr_vertices=95;
nr_edges=1984;
neighborhoods=[{1,2,3,4,5,6,7,8,9,10,11,12,13,14,15,16,18,19,20,23,24,25,26,27,28,30,31,32,33,36,37,38,39,40,41,42,43,44,45,46,47,49,50,51,52,53,54,56,57,58,59,61,62,63,64,65,66,67,68,69,71,73,75,77,78,79,80,81,82,83,84,85,87,88,89,90,92,94},{0,2,3,4,5,6,7,9,10,11,13,14,15,16,20,24,25,28,30,31,32,33,36,37,38,39,40,42,43,45,46,47,49,50,51,52,53,56,57,58,59,61,62,63,64,65,66,68,71,73,75,77,78,79,80,82,83,84,85,87,88,89,90,92},{0,1,3,4,5,6,7,9,10,11,13,14,15,16,20,24,25,28,30,31,32,33,36,37,38,39,40,42,43,45,46,47,49,50,51,52,53,57,58,59,61,62,63,64,65,66,68,71,73,75,77,78,79,82,83,84,85,87,88,89,90,92},{0,1,2,11,15,16,20,28,36,39,40,45,47,51,52,53,60,61,65,66,71,78,79,84,87,88,89,90,93},{0,1,2,15,16,20,28,37,39,40,42,47,49,51,52,53,60,61,65,66,71,78,79,84,87,88,89,90,93},{0,1,2,14,15,16,20,21,28,29,32,34,35,39,40,51,60,65,66,68,71,72,78,87,88,89,90,93},{0,1,2,15,16,20,28,32,39,40,47,51,52,53,60,61,65,66,68,71,78,79,84,87,88,89,90,93},{0,1,2,9,15,17,20,22,28,39,40,51,57,60,63,65,66,71,74,78,83,87,88,89,90,91,93},{0,15,17,20,21,22,28,29,34,35,39,40,48,51,55,60,65,70,72,74,76,86,87,88,91,93},{0,1,2,7,15,17,20,22,28,39,40,48,51,55,57,60,63,65,66,70,71,74,76,78,83,87,88,89,90,91,93},{0,1,2,15,16,20,28,32,39,40,47,51,52,60,61,65,66,68,71,78,79,82,84,87,88,89,90,93},{0,1,2,3,15,16,20,28,39,40,47,51,52,53,60,61,65,66,71,78,79,84,87,88,89,90,93},{0,15,17,20,21,22,28,29,34,35,39,40,48,51,55,60,65,70,72,74,76,78,86,87,88,91,93},{0,1,2,15,16,20,28,32,39,40,46,47,51,52,60,61,65,66,68,71,78,79,87,88,89,90,93},{0,1,2,5,15,16,20,28,32,39,40,51,60,65,66,68,71,78,87,88,89,90,93},{0,1,2,3,4,5,6,7,8,9,10,11,12,13,14,16,20,23,24,25,27,28,30,31,32,33,36,37,38,39,40,41,42,43,45,46,47,49,50,51,52,53,54,56,57,58,59,61,62,63,64,65,66,67,68,69,71,73,75,77,78,79,81,82,83,84,85,87,88,89,90,92,94},{0,1,2,3,4,5,6,10,11,13,14,15,20,24,25,28,30,31,32,33,36,37,38,39,40,42,43,45,46,47,49,50,51,52,53,58,59,60,61,62,64,65,66,68,71,73,75,77,78,79,82,84,85,87,88,89,90,92,93},{7,8,9,12,18,19,21,22,23,26,27,29,34,35,41,44,48,54,55,56,57,60,63,67,69,70,72,74,76,80,81,83,86,91,93,94},{0,17,19,21,22,26,28,29,34,35,39,41,44,48,51,54,55,60,66,69,70,71,72,74,76,78,80,86,88,91,93},{0,17,18,21,22,26,28,29,34,35,39,41,44,48,51,54,55,60,69,70,71,72,74,76,78,80,86,88,91,93},{0,1,2,3,4,5,6,7,8,9,10,11,12,13,14,15,16,23,24,25,27,28,30,31,32,33,36,37,38,39,40,41,42,43,45,46,47,49,50,51,52,53,54,56,57,58,59,61,62,63,64,65,66,67,68,69,71,73,75,77,78,79,81,82,83,84,85,87,88,89,90,92,94},{5,8,12,17,18,19,22,23,26,27,29,32,34,35,41,44,47,48,52,54,55,56,60,61,67,68,69,70,72,74,76,79,80,81,86,89,91,93,94},{7,8,9,12,17,18,19,21,23,26,27,29,34,35,41,44,48,54,55,56,57,60,63,67,69,70,72,74,76,80,81,83,86,91,93,94},{0,15,17,20,21,22,29,34,35,39,40,41,48,51,54,55,60,65,67,69,70,72,74,76,81,86,87,90,91,93,94},{0,1,2,15,16,20,28,36,39,40,47,51,52,53,60,61,62,65,66,71,73,77,78,79,84,87,88,89,90,93},{0,1,2,15,16,20,28,32,39,40,47,50,51,52,60,61,65,66,68,71,78,79,82,87,88,89,90,93},{0,17,18,19,21,22,28,29,34,35,39,41,44,48,51,54,55,60,69,70,72,74,76,78,80,86,88,91,93},{0,15,17,20,21,22,28,29,34,35,39,40,48,51,55,60,65,66,70,71,72,74,76,78,86,87,88,91,93},{0,1,2,3,4,5,6,7,8,9,10,11,12,13,14,15,16,18,19,20,24,25,26,27,30,31,32,33,36,37,38,39,40,42,43,44,45,46,47,49,50,51,52,53,56,57,58,59,61,62,63,64,65,66,68,69,71,73,75,77,78,79,80,82,83,84,85,87,88,89,90,92},{5,8,12,17,18,19,21,22,23,26,27,32,34,35,41,44,47,48,52,54,55,56,60,61,67,68,69,70,72,74,76,79,80,81,86,89,91,93,94},{0,1,2,15,16,20,28,31,32,38,39,40,47,51,52,53,60,61,62,65,66,71,73,75,78,79,84,85,87,88,89,90,92,93},{0,1,2,15,16,20,28,30,39,40,47,51,52,53,60,61,62,65,66,71,73,75,78,79,84,87,88,89,90,92,93},{0,1,2,5,6,10,13,14,15,16,20,21,25,28,29,30,34,35,39,40,46,47,50,51,52,53,58,59,60,61,65,66,68,71,72,73,75,78,79,82,84,87,88,89,90,93},{0,1,2,15,16,20,28,39,40,47,51,52,53,60,61,62,65,66,71,73,77,78,79,84,85,87,88,89,90,93},{5,8,12,17,18,19,21,22,23,26,27,29,32,35,41,44,47,48,52,54,55,56,60,61,67,68,69,70,72,74,76,79,80,81,86,89,91,93,94},{5,8,12,17,18,19,21,22,23,26,27,29,32,34,41,44,47,48,52,54,55,56,60,61,67,68,69,70,72,74,76,79,80,81,86,89,91,93,94},{0,1,2,3,15,16,20,24,28,37,39,40,45,47,51,52,53,60,61,62,65,66,71,73,77,78,79,84,87,88,89,90,93},{0,1,2,4,15,16,20,28,36,39,40,42,43,47,49,51,52,53,60,61,64,65,66,71,78,79,84,87,88,89,90,93},{0,1,2,15,16,20,28,30,39,40,47,51,52,53,60,61,62,65,66,71,73,75,78,79,84,85,87,88,89,90,93},{0,1,2,3,4,5,6,7,8,9,10,11,12,13,14,15,16,18,19,20,23,24,25,26,27,28,30,31,32,33,36,37,38,40,41,42,43,44,45,46,47,49,50,51,52,53,54,56,57,58,59,61,62,63,64,65,66,67,68,69,71,73,75,77,78,79,80,81,82,83,84,85,87,88,89,90,92,94},{0,1,2,3,4,5,6,7,8,9,10,11,12,13,14,15,16,20,23,24,25,27,28,30,31,32,33,36,37,38,39,41,42,43,45,46,47,49,50,51,52,53,54,56,57,58,59,61,62,63,64,65,66,67,68,69,71,73,75,77,78,79,81,82,83,84,85,87,88,89,90,92,94},{0,15,17,18,19,20,21,22,23,26,29,34,35,39,40,44,48,51,54,55,60,65,67,69,70,72,74,76,80,81,86,87,90,91,93,94},{0,1,2,4,15,16,20,28,37,39,40,43,47,49,51,52,53,60,61,64,65,66,71,78,79,84,87,88,89,90,93},{0,1,2,15,16,20,28,37,39,40,42,47,49,51,52,53,60,61,64,65,66,71,78,79,84,87,88,89,90,93},{0,17,18,19,21,22,26,28,29,34,35,39,41,48,51,54,55,60,69,70,72,74,76,80,86,88,91,93},{0,1,2,3,15,16,20,28,36,39,40,47,51,52,53,60,61,65,66,71,78,79,84,87,88,89,90,93},{0,1,2,13,15,16,20,28,32,39,40,47,51,52,60,61,65,66,68,71,78,79,87,88,89,90,93},{0,1,2,3,4,6,10,11,13,15,16,20,21,24,25,28,29,30,31,32,33,34,35,36,37,38,39,40,42,43,45,46,49,50,51,52,53,58,59,60,61,62,64,65,66,68,71,72,73,75,77,78,79,82,84,85,87,88,89,90,92,93},{8,9,12,17,18,19,21,22,23,26,27,29,34,35,41,44,54,55,56,60,67,69,70,72,74,76,80,81,86,91,93,94},{0,1,2,4,15,16,20,28,37,39,40,42,43,47,51,52,53,60,61,64,65,66,71,78,79,84,87,88,89,90,93},{0,1,2,15,16,20,25,28,32,39,40,47,51,52,60,61,65,66,68,71,78,79,82,87,88,89,90,93},{0,1,2,3,4,5,6,7,8,9,10,11,12,13,14,15,16,18,19,20,23,24,25,26,27,28,30,31,32,33,36,37,38,39,40,41,42,43,44,45,46,47,49,50,52,53,54,56,57,58,59,61,62,63,64,65,66,67,68,69,71,73,75,77,78,79,80,81,82,83,84,85,87,88,89,90,92,94},{0,1,2,3,4,6,10,11,13,15,16,20,21,24,25,28,29,30,31,32,33,34,35,36,37,38,39,40,42,43,45,46,47,49,50,51,53,58,59,60,61,62,64,65,66,68,71,72,73,75,77,78,79,82,84,85,87,88,89,90,92,93},{0,1,2,3,4,6,11,15,16,20,24,28,30,31,32,33,36,37,38,39,40,42,43,45,47,49,51,52,60,61,62,64,65,66,68,71,73,75,77,78,79,84,85,87,88,89,90,92,93},{0,15,17,18,19,20,21,22,23,26,29,34,35,39,40,41,44,48,51,55,60,65,67,69,70,72,74,76,80,81,86,87,90,91,93,94},{8,9,12,17,18,19,21,22,23,26,27,29,34,35,41,44,48,54,56,57,60,63,67,69,70,72,74,76,80,81,83,86,91,93,94},{0,1,15,17,20,21,22,28,29,34,35,39,40,48,51,55,60,65,66,70,71,72,74,76,78,86,87,88,91,93},{0,1,2,7,9,15,17,20,22,28,39,40,51,55,60,63,65,66,71,74,78,83,87,88,89,90,91,93},{0,1,2,15,16,20,28,32,39,40,47,51,52,59,60,61,65,66,68,71,78,79,87,88,89,90,93},{0,1,2,15,16,20,28,32,39,40,47,51,52,58,60,61,65,66,68,71,78,79,87,88,89,90,93},{3,4,5,6,7,8,9,10,11,12,13,14,16,17,18,19,21,22,23,24,25,26,27,29,30,31,32,33,34,35,36,37,38,41,42,43,44,45,46,47,48,49,50,52,53,54,55,56,57,58,59,61,62,63,64,67,68,69,70,72,73,74,75,76,77,79,80,81,82,83,84,85,86,89,91,92,93,94},{0,1,2,3,4,6,10,11,13,15,16,20,21,24,25,28,29,30,31,32,33,34,35,36,37,38,39,40,42,43,45,46,47,49,50,51,52,53,58,59,60,62,64,65,66,68,71,72,73,75,77,78,79,82,84,85,87,88,89,90,92,93},{0,1,2,15,16,20,24,28,30,31,33,36,38,39,40,47,51,52,53,60,61,65,66,71,73,75,77,78,79,84,85,87,88,89,90,92,93},{0,1,2,7,9,15,17,20,22,28,39,40,51,55,57,60,65,66,70,71,74,76,78,83,87,88,89,90,91,93},{0,1,2,15,16,20,28,37,39,40,42,43,47,49,51,52,53,60,61,65,66,71,78,79,84,87,88,89,90,93},{0,1,2,3,4,5,6,7,8,9,10,11,12,13,14,15,16,20,23,24,25,27,28,30,31,32,33,36,37,38,39,40,41,42,43,45,46,47,49,50,51,52,53,54,56,57,58,59,61,62,63,64,66,67,68,69,71,73,75,77,78,79,81,82,83,84,85,87,88,89,90,92,94},{0,1,2,3,4,5,6,7,9,10,11,13,14,15,16,18,20,24,25,27,28,30,31,32,33,36,37,38,39,40,42,43,45,46,47,49,50,51,52,53,56,57,58,59,61,62,63,64,65,68,71,73,75,77,78,79,80,82,83,84,85,87,88,89,90,92},{0,15,17,20,21,22,23,29,34,35,39,40,41,48,51,54,55,60,65,69,70,72,74,76,81,86,87,90,91,93,94},{0,1,2,5,6,10,13,14,15,16,20,21,25,28,29,32,34,35,39,40,46,47,50,51,52,53,58,59,60,61,65,66,71,72,78,79,82,84,87,88,89,90,93},{0,15,17,18,19,20,21,22,23,26,28,29,34,35,39,40,41,44,48,51,54,55,60,65,67,70,72,74,76,80,81,86,87,90,91,93,94},{8,9,12,17,18,19,21,22,23,26,27,29,34,35,41,44,48,54,55,56,60,63,67,69,72,74,76,80,81,83,86,91,93,94},{0,1,2,3,4,5,6,7,9,10,11,13,14,15,16,18,19,20,24,25,27,28,30,31,32,33,36,37,38,39,40,42,43,45,46,47,49,50,51,52,53,56,57,58,59,61,62,63,64,65,66,68,73,75,77,78,79,80,82,83,84,85,87,88,89,90,92},{5,8,12,17,18,19,21,22,23,26,27,29,32,34,35,41,44,47,48,52,54,55,56,60,61,67,68,69,70,74,76,79,80,81,86,89,91,93,94},{0,1,2,15,16,20,24,28,30,31,32,33,36,38,39,40,47,51,52,53,60,61,62,65,66,71,75,77,78,79,84,85,87,88,89,90,92,93},{7,8,9,12,17,18,19,21,22,23,26,27,29,34,35,41,44,48,54,55,56,57,60,63,67,69,70,72,76,80,81,83,86,91,93,94},{0,1,2,15,16,20,28,30,31,32,38,39,40,47,51,52,53,60,61,62,65,66,71,73,77,78,79,84,85,87,88,89,90,92,93},{8,9,12,17,18,19,21,22,23,26,27,29,34,35,41,44,48,54,55,56,60,63,67,69,70,72,74,80,81,86,91,93,94},{0,1,2,15,16,20,24,28,33,36,39,40,47,51,52,53,60,61,62,65,66,71,73,75,78,79,84,85,87,88,89,90,93},{0,1,2,3,4,5,6,7,9,10,11,12,13,14,15,16,18,19,20,24,25,26,27,28,30,31,32,33,36,37,38,39,40,42,43,45,46,47,49,50,51,52,53,56,57,58,59,61,62,63,64,65,66,68,71,73,75,77,79,80,82,83,84,85,87,88,89,90,92},{0,1,2,3,4,6,10,11,13,15,16,20,21,24,25,28,29,30,31,32,33,34,35,36,37,38,39,40,42,43,45,46,47,49,50,51,52,53,58,59,60,61,62,64,65,66,68,71,72,73,75,77,78,82,84,85,87,88,89,90,92,93},{0,1,17,18,19,21,22,26,28,29,34,35,39,41,44,48,51,54,55,60,66,69,70,71,72,74,76,78,86,88,91,93},{0,15,17,20,21,22,23,29,34,35,39,40,41,48,51,54,55,60,65,67,69,70,72,74,76,86,87,90,91,93,94},{0,1,2,10,15,16,20,25,28,32,39,40,47,50,51,52,60,61,65,66,68,71,78,79,84,87,88,89,90,93},{0,1,2,7,9,15,17,20,22,28,39,40,51,55,57,60,63,65,66,70,71,74,78,87,88,89,90,91,93},{0,1,2,3,4,6,10,11,15,16,20,24,28,30,31,32,33,36,37,38,39,40,42,43,45,47,49,51,52,53,60,61,62,64,65,66,68,71,73,75,77,78,79,82,85,87,88,89,90,92,93},{0,1,2,15,16,20,28,30,33,38,39,40,47,51,52,53,60,61,62,65,66,71,73,75,77,78,79,84,87,88,89,90,93},{8,12,17,18,19,21,22,23,26,27,29,34,35,41,44,48,54,55,56,60,67,69,70,72,74,76,80,81,91,93,94},{0,1,2,3,4,5,6,7,8,9,10,11,12,13,14,15,16,20,23,24,25,27,28,30,31,32,33,36,37,38,39,40,41,42,43,45,46,47,49,50,51,52,53,54,56,57,58,59,61,62,63,64,65,66,67,68,69,71,73,75,77,78,79,81,82,83,84,85,88,89,90,92,94},{0,1,2,3,4,5,6,7,8,9,10,11,12,13,14,15,16,18,19,20,24,25,26,27,28,30,31,32,33,36,37,38,39,40,42,43,44,45,46,47,49,50,51,52,53,56,57,58,59,61,62,63,64,65,66,68,71,73,75,77,78,79,80,82,83,84,85,87,89,90,92},{0,1,2,3,4,5,6,7,9,10,11,13,14,15,16,20,21,24,25,28,29,30,31,32,33,34,35,36,37,38,39,40,42,43,45,46,47,49,50,51,52,53,57,58,59,60,61,62,63,64,65,66,68,71,72,73,75,77,78,79,82,83,84,85,87,88,90,92,93},{0,1,2,3,4,5,6,7,9,10,11,13,14,15,16,20,23,24,25,28,30,31,32,33,36,37,38,39,40,41,42,43,45,46,47,49,50,51,52,53,54,57,58,59,61,62,63,64,65,66,67,68,69,71,73,75,77,78,79,81,82,83,84,85,87,88,89,92,94},{7,8,9,12,17,18,19,21,22,23,26,27,29,34,35,41,44,48,54,55,56,57,60,63,67,69,70,72,74,76,80,81,83,86,93,94},{0,1,2,15,16,20,28,30,31,39,40,47,51,52,53,60,61,62,65,66,71,73,75,78,79,84,87,88,89,90,93},{3,4,5,6,7,8,9,10,11,12,13,14,16,17,18,19,21,22,23,24,25,26,27,29,30,31,32,33,34,35,36,37,38,41,42,43,44,45,46,47,48,49,50,52,53,54,55,56,57,58,59,60,61,62,63,64,67,68,69,70,72,73,74,75,76,77,79,80,81,82,83,84,85,86,89,91,92,94},{0,15,17,20,21,22,23,29,34,35,39,40,41,48,51,54,55,60,65,67,69,70,72,74,76,81,86,87,90,91,93}];
weights=[19,19,19,19,19,19,19,19,19,18,18,18,18,18,18,17,17,17,17,17,16,16,16,16,16,16,15,15,14,14,14,14,13,13,12,12,12,12,12,11,11,11,11,11,11,11,11,10,10,10,10,9,9,9,9,9,9,9,9,9,8,8,8,8,8,7,7,7,6,6,6,5,5,5,5,5,5,5,4,4,4,4,4,4,3,3,3,2,2,2,2,2,2,1,1];
